Minizinc/inputs/01_easy.dzn
%%%%%%%%%%%%%%%%%%%%%%%%%%%%%%%
%   01.1
%%%%%%%%%%%%%%%%%%%%%%%%%%%%%%%
% max_t = 8;
% n = 5;
% M = 
% [| 0, 0, 1, 1, 0
%  | 1, 1, 1, 1, 1
%  | 0, 0, 0, 1, 0
%  | 0, 0, 0, 1, 1
%  | 1, 0, 0, 0, 1
%  |];

%%%%%%%%%%%%%%%%%%%%%%%%%%%%%%%
%   01.2
%%%%%%%%%%%%%%%%%%%%%%%%%%%%%%%
% max_t = 7;
% n = 6;
% M = 
% [| 0, 0, 1, 1, 0, 1
%  | 1, 1, 1, 1, 0, 06
%  | 0, 1, 0, 0, 0, 0
%  | 1, 0, 1, 0, 0, 0
%  | 1, 0, 1, 1, 0, 1
%  | 1, 0, 1, 1, 1, 1
%  |];

%%%%%%%%%%%%%%%%%%%%%%%%%%%%%%%
%   01.3
%%%%%%%%%%%%%%%%%%%%%%%%%%%%%%%
% max_t = 12;
% n = 4;
% M = 
% [| 0, 0, 1, 1
%  | 0, 1, 1, 1
%  | 1, 1, 0, 0
%  | 0, 1, 0, 1
%  |];

%%%%%%%%%%%%%%%%%%%%%%%%%%%%%%%
%   01.4
%%%%%%%%%%%%%%%%%%%%%%%%%%%%%%%
% max_t = 7;
% n = 5;
% M = 
% [| 1, 0, 1, 0, 1
%  | 0, 1, 1, 1, 0
%  | 1, 1, 1, 0, 1
%  | 0, 0, 0, 0, 1
%  | 0, 0, 1, 0, 1
%  |];