ASP/inputs/01_easy.lp
%%%%%%%%%%%%%%%%%%%%%%%%%%%%%%%
%   01.1
%%%%%%%%%%%%%%%%%%%%%%%%%%%%%%%
% #const max_t = 8.
% #const n = 5.
% m(1,1,0). m(1,2,0). m(1,3,1). m(1,4,1). m(1,5,0).
% m(2,1,1). m(2,2,1). m(2,3,1). m(2,4,1). m(2,5,1).
% m(3,1,0). m(3,2,0). m(3,3,0). m(3,4,1). m(3,5,0).
% m(4,1,0). m(4,2,0). m(4,3,0). m(4,4,1). m(4,5,1).
% m(5,1,1). m(5,2,0). m(5,3,0). m(5,4,0). m(5,5,1).

%%%%%%%%%%%%%%%%%%%%%%%%%%%%%%%
%   01.2
%%%%%%%%%%%%%%%%%%%%%%%%%%%%%%%
% #const max_t = 7.
% #const n = 6.
% m(1,1,0). m(1,2,0). m(1,3,1). m(1,4,1). m(1,5,0). m(1,6,1).
% m(2,1,1). m(2,2,1). m(2,3,1). m(2,4,1). m(2,5,0). m(2,6,0).
% m(3,1,0). m(3,2,1). m(3,3,0). m(3,4,0). m(3,5,0). m(3,6,0).
% m(4,1,1). m(4,2,0). m(4,3,1). m(4,4,0). m(4,5,0). m(4,6,0).
% m(5,1,1). m(5,2,0). m(5,3,1). m(5,4,1). m(5,5,0). m(5,6,1).
% m(6,1,1). m(6,2,0). m(6,3,1). m(6,4,1). m(6,5,1). m(6,6,1).

%%%%%%%%%%%%%%%%%%%%%%%%%%%%%%%
%   01.3
%%%%%%%%%%%%%%%%%%%%%%%%%%%%%%%
% #const max_t = 12.
% #const n = 4.
% m(1,1,0). m(1,2,0). m(1,3,1). m(1,4,1).
% m(2,1,0). m(2,2,1). m(2,3,1). m(2,4,1).
% m(3,1,1). m(3,2,1). m(3,3,0). m(3,4,0).
% m(4,1,0). m(4,2,1). m(4,3,0). m(4,4,1).

%%%%%%%%%%%%%%%%%%%%%%%%%%%%%%%
%   01.4
%%%%%%%%%%%%%%%%%%%%%%%%%%%%%%%
% #const max_t = 7.
% #const n = 5.
% m(1,1,1). m(1,2,0). m(1,3,1). m(1,4,0). m(1,5,1).
% m(2,1,0). m(2,2,1). m(2,3,1). m(2,4,1). m(2,5,0).
% m(3,1,1). m(3,2,1). m(3,3,1). m(3,4,0). m(3,5,1).
% m(4,1,0). m(4,2,0). m(4,3,0). m(4,4,0). m(4,5,1).
% m(5,1,0). m(5,2,0). m(5,3,1). m(5,4,0). m(5,5,1).